85
120
96	14
95	6
94	10
93	7
92	5
91	7
90	11
89	12
88	14
87	2
86	2
85	7
84	10
83	8
82	10
81	9
80	6
79	10
78	7
77	9
76	10
75	10
74	13
73	6
72	12
71	9
70	10
69	6
68	13
67	10
66	9
65	3
64	7
63	13
62	9
61	15
60	8
59	8
58	6
57	9
56	6
55	7
54	8
53	10
52	8
51	10
50	6
49	10
48	8
47	7
46	11
45	10
44	5
43	8
42	10
41	7
40	11
39	7
38	11
37	8
36	6
35	7
34	12
33	5
32	4
31	13
30	8
29	12
28	11
27	6
26	8
25	14
24	8
23	14
22	15
21	7
20	8
19	9
18	11
17	5
16	8
15	13
14	11
13	12
12	3
